c Reduced graph for 1-FullIns_3 generated by Cyril Grelier
p edge 30 100
e 1 2
e 1 3
e 1 18
e 1 19
e 1 20
e 1 23
e 1 24
e 1 25
e 1 26
e 1 29
e 1 30
e 2 3
e 2 4
e 2 5
e 2 6
e 2 10
e 2 11
e 2 12
e 2 13
e 2 21
e 2 22
e 3 18
e 3 19
e 3 20
e 3 23
e 3 24
e 3 25
e 3 26
e 3 29
e 3 30
e 4 8
e 4 9
e 4 16
e 4 17
e 4 19
e 4 20
e 4 25
e 4 26
e 5 7
e 5 9
e 5 14
e 5 15
e 5 18
e 5 20
e 5 23
e 5 24
e 6 7
e 6 8
e 6 16
e 6 17
e 6 18
e 6 19
e 6 25
e 6 26
e 7 8
e 7 9
e 7 12
e 7 13
e 7 16
e 7 17
e 8 9
e 8 10
e 8 11
e 8 14
e 8 15
e 9 12
e 9 13
e 9 16
e 9 17
e 10 17
e 10 19
e 10 26
e 10 28
e 10 30
e 11 16
e 11 19
e 11 25
e 11 27
e 11 29
e 12 15
e 12 18
e 12 20
e 12 24
e 13 14
e 13 18
e 13 20
e 13 23
e 14 17
e 14 22
e 14 28
e 15 16
e 15 21
e 15 27
e 21 24
e 21 28
e 21 30
e 22 23
e 22 27
e 22 29
e 27 28
